************************************************************************
file with basedata            : J12043_.BAS
initial value random generator: 1888806622
************************************************************************
projects                      :  1
jobs (incl. supersource/sink ):  122
horizon                       :  721
RESOURCES
  - renewable                 :  4   R
  - nonrenewable              :  0   N
  - doubly constrained        :  0   D
************************************************************************
PROJECT INFORMATION:
pronr.  #jobs rel.date duedate tardcost  MPM-Time
    1    120      0      117       21      117
************************************************************************
PRECEDENCE RELATIONS:
jobnr.    #modes  #successors   successors
   1        1          3           2   3   4
   2        1          3          15  18 121
   3        1          3          12  17  35
   4        1          3           5   6   7
   5        1          3          20  40  45
   6        1          3          11  24  60
   7        1          3           8   9  22
   8        1          3          14  65 104
   9        1          3          10  13  19
  10        1          3          24  29  69
  11        1          3          16  53  80
  12        1          2          34  36
  13        1          1          16
  14        1          3          25  32  82
  15        1          3          31  42  54
  16        1          1         104
  17        1          2          24  39
  18        1          3          30  33  45
  19        1          3          21  27  85
  20        1          3          26  37  41
  21        1          2          34  38
  22        1          3          23  28 111
  23        1          3          64  69  92
  24        1          3          40  76  79
  25        1          2          49  52
  26        1          3          29  63  98
  27        1          3          40  57  83
  28        1          2          44  54
  29        1          2          51  77
  30        1          2          75  81
  31        1          3          33  58  73
  32        1          3          47  67  89
  33        1          3          48  83 108
  34        1          3          44  48  49
  35        1          3          43  51 120
  36        1          2          46  57
  37        1          2          56  70
  38        1          2          87  93
  39        1          2          50  94
  40        1          3          78  97 103
  41        1          3          56  63  66
  42        1          2          59  76
  43        1          3          44  58  72
  44        1          1          92
  45        1          3          54  55  98
  46        1          3          49  50  86
  47        1          1         109
  48        1          1          57
  49        1          2          61  64
  50        1          3          72  78 106
  51        1          3          59  60  66
  52        1          3          62  91 115
  53        1          3          58  69  90
  54        1          2          89 119
  55        1          3          59  61  68
  56        1          3          86  89 102
  57        1          3          64  87  93
  58        1          2          61 105
  59        1          1          80
  60        1          2          74 107
  61        1          3          84  95 113
  62        1          2          71  74
  63        1          2          77  82
  64        1          2          76 113
  65        1          3          70  71  79
  66        1          3          70  71  91
  67        1          2          74  81
  68        1          3          75  85 100
  69        1          2          77 116
  70        1          3          78  81  82
  71        1          3          72  73  84
  72        1          2          88  99
  73        1          3          90  94 102
  74        1          2          86 101
  75        1          1          80
  76        1          2          95 110
  77        1          3          79 101 115
  78        1          1         107
  79        1          2          84  91
  80        1          2          88  96
  81        1          3          83  88  94
  82        1          1         109
  83        1          1          95
  84        1          1          87
  85        1          3          96 103 110
  86        1          3          90  92 112
  87        1          1         100
  88        1          1          97
  89        1          1         120
  90        1          2          99 108
  91        1          1         121
  92        1          1         121
  93        1          2          98 104
  94        1          2          96 111
  95        1          1         100
  96        1          2          97 105
  97        1          1         107
  98        1          3          99 101 112
  99        1          1         105
 100        1          2         103 106
 101        1          2         102 106
 102        1          2         113 117
 103        1          1         114
 104        1          3         110 111 116
 105        1          1         114
 106        1          1         114
 107        1          2         108 117
 108        1          1         109
 109        1          1         116
 110        1          1         115
 111        1          1         112
 112        1          1         118
 113        1          1         119
 114        1          1         117
 115        1          1         120
 116        1          1         118
 117        1          1         118
 118        1          1         119
 119        1          1         122
 120        1          1         122
 121        1          1         122
 122        1          0        
************************************************************************
REQUESTS/DURATIONS:
jobnr. mode duration  R 1  R 2  R 3  R 4
------------------------------------------------------------------------
  1      1     0       0    0    0    0
  2      1     7       0    6    0    0
  3      1     4       0    0    0    3
  4      1     2       0    0    9    0
  5      1     4       0    0    6    0
  6      1     9       0    0    8    0
  7      1     1       0    0    0    4
  8      1     9       0    2    0    0
  9      1    10       9    0    0    0
 10      1     6       1    0    0    0
 11      1     5       0    0    2    0
 12      1     3       0    0    0    9
 13      1     1       0    3    0    0
 14      1     7       0    5    0    0
 15      1     9       0    0    0    8
 16      1     9       5    0    0    0
 17      1     9       4    0    0    0
 18      1     6       0    0    0    2
 19      1     1       0   10    0    0
 20      1     9       0    5    0    0
 21      1     1       7    0    0    0
 22      1    10       0    0    0    1
 23      1    10       6    0    0    0
 24      1     3       0    0    2    0
 25      1     4       0    0   10    0
 26      1     8       0    0    0    3
 27      1     4       0    0    7    0
 28      1    10       0    0    0    3
 29      1     6       1    0    0    0
 30      1    10       0    0    6    0
 31      1     8       0    0    0    8
 32      1     7       9    0    0    0
 33      1     7       0    0    0    5
 34      1    10       0    7    0    0
 35      1     8       0    5    0    0
 36      1     8       0    3    0    0
 37      1     1       0    7    0    0
 38      1     3       0    0    8    0
 39      1     7       0    0    8    0
 40      1     9       0    8    0    0
 41      1     6      10    0    0    0
 42      1     4       5    0    0    0
 43      1     3       0    0    1    0
 44      1     1       0    3    0    0
 45      1     7       0    0    0    4
 46      1     9       0    0    0    5
 47      1     3       0    4    0    0
 48      1     7       0    0    9    0
 49      1     2       0    0    8    0
 50      1     1       2    0    0    0
 51      1     3       6    0    0    0
 52      1     2       2    0    0    0
 53      1     8       0    7    0    0
 54      1     3       0    0    0    5
 55      1     3       0    0    0   10
 56      1     2       8    0    0    0
 57      1     1       0    0    0    5
 58      1    10       0   10    0    0
 59      1     9       0    0    0    8
 60      1     2       0    0    5    0
 61      1     5       3    0    0    0
 62      1     8       0    0    3    0
 63      1     4       0    0    6    0
 64      1    10       0    0   10    0
 65      1     5       0    0    6    0
 66      1     3       0    0    0    8
 67      1     7      10    0    0    0
 68      1    10       0    0    0    6
 69      1     2       0    0    0    1
 70      1     7       0   10    0    0
 71      1     8       8    0    0    0
 72      1     9       0    9    0    0
 73      1     8       5    0    0    0
 74      1     3       0    0    0    3
 75      1    10       3    0    0    0
 76      1     7       2    0    0    0
 77      1     7       0    0    0    8
 78      1     6       0    0    0    8
 79      1     6       8    0    0    0
 80      1     1       0    0    0    2
 81      1     8       9    0    0    0
 82      1    10       0    0    9    0
 83      1     7       0    5    0    0
 84      1     2       3    0    0    0
 85      1     2       7    0    0    0
 86      1    10       0    6    0    0
 87      1     6       0    1    0    0
 88      1     3       7    0    0    0
 89      1     9       0    0    3    0
 90      1     9       0    7    0    0
 91      1     4       0    0    0    4
 92      1     8       1    0    0    0
 93      1     8       0    0    0    3
 94      1     5       0    0    0    3
 95      1     9       0    0    0    1
 96      1    10       0    0    0    6
 97      1     5       0    0    0    1
 98      1     5       0    0    0    1
 99      1     2       1    0    0    0
100      1     4       0    0    0    5
101      1     3       0    0    1    0
102      1     1       0    1    0    0
103      1     8       0    0    7    0
104      1     7       9    0    0    0
105      1     1       0    4    0    0
106      1     9       0    0    6    0
107      1     5       5    0    0    0
108      1     8       0    4    0    0
109      1     9       0    0    8    0
110      1    10       0    0    2    0
111      1     2       0    0    0    8
112      1     9       5    0    0    0
113      1     9       0    0    0    5
114      1     8       0    0    0    9
115      1     8       0    0    5    0
116      1    10       0    0    0   10
117      1    10       0    0    0   10
118      1     7       0    3    0    0
119      1     7       0    0    5    0
120      1     3       0    0    0    4
121      1     4       5    0    0    0
122      1     0       0    0    0    0
************************************************************************
RESOURCEAVAILABILITIES:
  R 1  R 2  R 3  R 4
   18   15   18   16
************************************************************************
